c Generated by CellRouter, look at JSON variable remapping
p cnf 28 70
1 0 
24 0 
-21 1 0 
-21 24 0 
11 21 0 
-11 -21 0 
21 11 0 
-21 -11 0 
-11 1 0 
-11 24 0 
-9 4 0 
-22 5 0 
-13 7 0 
-8 19 0 
-16 23 0 
-27 15 0 
-10 26 0 
-20 2 0 
9 22 0 
-9 -22 0 
13 8 0 
-13 -8 0 
16 27 0 
-16 -27 0 
10 20 0 
-10 -20 0 
-9 -16 0 
-22 -8 0 
-13 -20 0 
-8 -22 0 
-16 -9 0 
-27 -10 0 
-10 -27 0 
-20 -13 0 
-4 -23 18 0 
-4 -25 5 0 
-4 -3 4 0 
-4 -15 17 0 
-5 -19 18 0 
-5 -12 5 0 
-5 -6 4 0 
-5 -7 17 0 
-7 -14 19 0 
-7 -2 12 0 
-7 -26 6 0 
-7 -28 7 0 
-19 -18 19 0 
-19 -5 12 0 
-19 -4 6 0 
-19 -17 7 0 
-23 -18 23 0 
-23 -5 25 0 
-23 -4 3 0 
-23 -17 15 0 
-15 -14 23 0 
-15 -2 25 0 
-15 -26 3 0 
-15 -28 15 0 
-26 -23 14 0 
-26 -25 2 0 
-26 -3 26 0 
-26 -15 28 0 
-2 -19 14 0 
-2 -12 2 0 
-2 -6 26 0 
-2 -7 28 0 
-18 0 
-12 0 
-3 0 
-28 0 
